10 10 3

0 83 243 82 55 95 408 75 432 54 
394 0 208 101 202 312 197 156 371 317 
359 419 0 263 257 473 156 210 304 337 
59 304 153 0 226 93 346 258 98 147 
373 331 79 377 0 224 444 428 376 256 
332 238 333 148 96 0 252 117 59 431 
224 427 234 267 192 244 0 370 368 288 
423 126 92 276 449 373 305 0 81 304 
456 216 386 211 498 124 494 145 0 377 
452 212 387 138 142 69 78 360 211 0 

284.13 0 4
284.13 1 7
284.13 2 4
284.13 3 7
284.13 4 6
284.13 5 4
284.13 6 5
284.13 7 2
284.13 8 2
284.13 9 7

